# 49428
param k := 6;
param n := 60;
param s := 1;
set E :=  (0,35) (0,44) (1,31) (1,59) (2,18) (2,26) (2,47) (2,50) (3,41) (3,47) (4,39) (5,15) (6,16) (6,26) (6,30) (6,38) (7,33) (8,36) (8,41) (9,23) (9,41) (9,55) (10,30) (11,27) (11,53) (12,52) (13,15) (14,59) (15,46) (16,53) (17,20) (17,25) (17,57) (18,37) (19,20) (20,49) (20,56) (21,58) (22,29) (22,30) (23,35) (23,48) (24,53) (25,28) (26,56) (28,51) (31,36) (32,40) (32,55) (33,37) (34,37) (34,54) (37,52) (38,44) (39,46) (39,57) (42,51) (43,47) (45,56) (48,58);